nN = 8;
nR = 40;
nH = 1;

a = [[25, 18, 19, 21, 21, 18, 22, 19, 18, 25, 17, 18, 22, 25, 24, 22, 16, 17, 24, 19, 19, 23, 15, 15, 25, 21, 16, 22, 16, 15, 19, 18, 22, 20, 21, 17, 15, 21, 19, 24], [16, 21, 25, 22, 19, 25, 24, 16, 15, 25, 20, 25, 17, 25, 24, 17, 22, 22, 24, 22, 24, 24, 16, 24, 25, 21, 24, 21, 23, 16, 16, 16, 25, 24, 20, 22, 23, 19, 19, 22], [23, 19, 18, 24, 16, 23, 18, 21, 22, 22, 24, 19, 24, 23, 21, 24, 15, 17, 15, 16, 20, 19, 25, 22, 23, 21, 24, 21, 16, 18, 22, 22, 17, 22, 24, 24, 18, 19, 17, 25], [24, 19, 23, 24, 24, 25, 21, 23, 22, 23, 16, 25, 23, 15, 24, 21, 15, 17, 23, 23, 16, 21, 21, 22, 18, 22, 19, 21, 16, 16, 15, 24, 16, 21, 25, 25, 15, 22, 25, 19], [17, 25, 18, 20, 23, 19, 25, 23, 17, 24, 19, 16, 25, 15, 24, 25, 20, 19, 22, 21, 22, 21, 25, 17, 15, 24, 23, 23, 16, 21, 25, 19, 16, 24, 19, 24, 20, 22, 23, 25], [22, 20, 17, 20, 17, 17, 21, 21, 23, 15, 21, 25, 21, 22, 16, 22, 20, 15, 19, 15, 23, 25, 15, 23, 24, 15, 19, 15, 16, 15, 25, 22, 16, 21, 23, 20, 24, 18, 18, 18], [25, 23, 15, 20, 18, 15, 17, 25, 20, 25, 24, 17, 18, 18, 23, 16, 18, 21, 23, 24, 15, 16, 19, 23, 19, 23, 25, 20, 20, 21, 18, 25, 25, 23, 19, 18, 17, 25, 24, 15], [18, 15, 16, 18, 18, 25, 23, 17, 23, 19, 25, 19, 19, 22, 25, 19, 19, 25, 18, 21, 16, 16, 25, 25, 19, 15, 15, 20, 18, 19, 16, 16, 18, 21, 25, 18, 17, 24, 24, 22]];
c = [[[0, 0, 0, 0, 0, 0, 0, 0, 0, 0, 0, 0, 0, 0, 0, 0, 0, 0, 0, 0, 0, 0, 0, 0, 0, 0, 0, 0, 0, 0, 0, 0, 0, 0, 0, 0, 0, 0, 0, 0], [43, 31, 41, 30, 31, 44, 37, 37, 49, 47, 35, 41, 38, 35, 36, 43, 31, 42, 43, 48, 33, 49, 33, 45, 44, 33, 34, 30, 43, 37, 46, 47, 36, 32, 35, 36, 40, 42, 48, 47], [45, 41, 39, 45, 43, 50, 32, 45, 33, 31, 43, 33, 46, 41, 35, 42, 48, 37, 48, 46, 42, 41, 48, 39, 42, 50, 37, 48, 47, 46, 46, 50, 32, 40, 40, 32, 37, 34, 36, 32], [43, 42, 49, 34, 46, 39, 49, 33, 42, 48, 37, 32, 49, 41, 36, 34, 43, 50, 43, 36, 42, 49, 37, 38, 43, 47, 33, 40, 42, 37, 42, 39, 40, 31, 48, 45, 42, 41, 45, 49], [31, 37, 32, 30, 41, 40, 34, 50, 34, 47, 45, 42, 37, 47, 48, 41, 45, 38, 44, 32, 33, 40, 36, 45, 32, 46, 41, 48, 38, 34, 35, 46, 43, 48, 31, 43, 38, 33, 42, 46], [32, 47, 35, 41, 38, 32, 39, 41, 37, 44, 46, 46, 38, 38, 35, 45, 33, 32, 39, 37, 41, 43, 34, 45, 41, 43, 48, 33, 43, 49, 49, 41, 44, 33, 49, 31, 40, 48, 46, 40], [31, 35, 37, 49, 38, 50, 30, 43, 48, 42, 37, 31, 34, 45, 45, 45, 47, 38, 39, 34, 46, 50, 39, 41, 49, 30, 33, 34, 45, 33, 45, 48, 48, 46, 30, 33, 44, 34, 36, 49], [43, 50, 37, 38, 42, 30, 45, 46, 34, 32, 35, 42, 44, 39, 32, 33, 50, 37, 33, 36, 45, 39, 35, 41, 45, 40, 30, 43, 33, 43, 32, 35, 43, 42, 47, 50, 49, 46, 34, 35]], [[0, 0, 0, 0, 0, 0, 0, 0, 0, 0, 0, 0, 0, 0, 0, 0, 0, 0, 0, 0, 0, 0, 0, 0, 0, 0, 0, 0, 0, 0, 0, 0, 0, 0, 0, 0, 0, 0, 0, 0], [0, 0, 0, 0, 0, 0, 0, 0, 0, 0, 0, 0, 0, 0, 0, 0, 0, 0, 0, 0, 0, 0, 0, 0, 0, 0, 0, 0, 0, 0, 0, 0, 0, 0, 0, 0, 0, 0, 0, 0], [47, 41, 33, 49, 49, 45, 30, 45, 50, 35, 34, 39, 46, 50, 30, 45, 45, 43, 46, 45, 30, 37, 34, 50, 38, 49, 45, 34, 35, 50, 41, 38, 31, 46, 30, 47, 38, 31, 38, 49], [47, 32, 33, 38, 40, 39, 43, 48, 30, 40, 45, 45, 43, 50, 35, 34, 38, 47, 37, 40, 39, 30, 39, 40, 37, 37, 37, 35, 33, 30, 49, 35, 44, 43, 44, 41, 31, 41, 36, 44], [30, 35, 37, 35, 34, 35, 31, 44, 30, 40, 42, 38, 47, 50, 37, 36, 47, 44, 33, 37, 33, 43, 40, 32, 31, 31, 30, 45, 50, 45, 40, 41, 36, 39, 43, 50, 45, 39, 36, 34], [49, 37, 43, 34, 44, 49, 48, 30, 34, 50, 30, 38, 44, 43, 31, 35, 47, 35, 49, 40, 41, 50, 34, 41, 45, 50, 46, 49, 38, 47, 33, 34, 37, 40, 47, 41, 49, 44, 45, 48], [35, 47, 31, 49, 39, 35, 34, 46, 38, 33, 40, 47, 45, 50, 41, 36, 31, 32, 39, 49, 32, 48, 37, 39, 49, 35, 37, 45, 41, 30, 34, 42, 48, 30, 32, 31, 38, 39, 45, 31], [34, 30, 43, 34, 31, 48, 38, 33, 32, 43, 37, 48, 33, 34, 45, 40, 48, 34, 30, 37, 47, 40, 49, 42, 35, 35, 46, 31, 30, 39, 34, 50, 40, 31, 40, 30, 48, 31, 38, 35]], [[0, 0, 0, 0, 0, 0, 0, 0, 0, 0, 0, 0, 0, 0, 0, 0, 0, 0, 0, 0, 0, 0, 0, 0, 0, 0, 0, 0, 0, 0, 0, 0, 0, 0, 0, 0, 0, 0, 0, 0], [0, 0, 0, 0, 0, 0, 0, 0, 0, 0, 0, 0, 0, 0, 0, 0, 0, 0, 0, 0, 0, 0, 0, 0, 0, 0, 0, 0, 0, 0, 0, 0, 0, 0, 0, 0, 0, 0, 0, 0], [0, 0, 0, 0, 0, 0, 0, 0, 0, 0, 0, 0, 0, 0, 0, 0, 0, 0, 0, 0, 0, 0, 0, 0, 0, 0, 0, 0, 0, 0, 0, 0, 0, 0, 0, 0, 0, 0, 0, 0], [40, 34, 35, 38, 45, 43, 50, 43, 39, 37, 47, 46, 40, 43, 35, 40, 44, 33, 43, 35, 32, 43, 31, 40, 45, 36, 41, 34, 38, 45, 30, 50, 42, 30, 39, 50, 43, 36, 37, 48], [42, 40, 34, 49, 41, 41, 40, 35, 49, 32, 50, 40, 49, 40, 30, 43, 30, 33, 37, 38, 35, 39, 40, 42, 31, 44, 40, 36, 42, 32, 30, 46, 48, 47, 40, 30, 50, 38, 31, 50], [47, 39, 33, 48, 42, 45, 43, 30, 33, 48, 37, 31, 30, 30, 45, 37, 42, 46, 48, 37, 37, 41, 49, 30, 31, 36, 40, 48, 42, 48, 50, 41, 46, 49, 41, 32, 49, 43, 44, 37], [48, 31, 33, 36, 46, 49, 31, 47, 43, 38, 31, 50, 36, 33, 35, 50, 33, 32, 46, 49, 47, 35, 33, 42, 32, 38, 48, 33, 32, 30, 34, 37, 47, 34, 50, 49, 33, 35, 43, 40], [46, 48, 48, 47, 38, 45, 43, 48, 32, 48, 37, 31, 50, 47, 49, 41, 34, 34, 43, 48, 33, 50, 44, 42, 45, 34, 49, 37, 35, 38, 47, 37, 34, 38, 37, 30, 30, 46, 30, 38]], [[0, 0, 0, 0, 0, 0, 0, 0, 0, 0, 0, 0, 0, 0, 0, 0, 0, 0, 0, 0, 0, 0, 0, 0, 0, 0, 0, 0, 0, 0, 0, 0, 0, 0, 0, 0, 0, 0, 0, 0], [0, 0, 0, 0, 0, 0, 0, 0, 0, 0, 0, 0, 0, 0, 0, 0, 0, 0, 0, 0, 0, 0, 0, 0, 0, 0, 0, 0, 0, 0, 0, 0, 0, 0, 0, 0, 0, 0, 0, 0], [0, 0, 0, 0, 0, 0, 0, 0, 0, 0, 0, 0, 0, 0, 0, 0, 0, 0, 0, 0, 0, 0, 0, 0, 0, 0, 0, 0, 0, 0, 0, 0, 0, 0, 0, 0, 0, 0, 0, 0], [0, 0, 0, 0, 0, 0, 0, 0, 0, 0, 0, 0, 0, 0, 0, 0, 0, 0, 0, 0, 0, 0, 0, 0, 0, 0, 0, 0, 0, 0, 0, 0, 0, 0, 0, 0, 0, 0, 0, 0], [42, 46, 34, 37, 48, 43, 49, 36, 40, 32, 42, 50, 32, 35, 39, 35, 50, 37, 31, 48, 45, 42, 45, 32, 30, 38, 45, 45, 34, 49, 33, 44, 37, 31, 45, 33, 46, 34, 34, 48], [43, 46, 41, 35, 30, 34, 33, 32, 39, 39, 30, 45, 33, 32, 36, 45, 34, 32, 42, 34, 44, 45, 38, 36, 48, 31, 32, 48, 49, 41, 48, 31, 42, 49, 45, 40, 41, 40, 31, 48], [38, 47, 36, 30, 46, 30, 35, 44, 43, 39, 30, 49, 41, 34, 42, 44, 36, 34, 46, 47, 46, 45, 48, 45, 47, 39, 47, 49, 43, 44, 43, 40, 36, 39, 46, 45, 36, 42, 42, 42], [37, 33, 45, 41, 39, 34, 39, 44, 35, 45, 38, 38, 32, 36, 38, 43, 38, 46, 30, 42, 34, 50, 49, 32, 33, 42, 34, 39, 42, 48, 44, 39, 39, 40, 50, 33, 50, 37, 48, 33]], [[0, 0, 0, 0, 0, 0, 0, 0, 0, 0, 0, 0, 0, 0, 0, 0, 0, 0, 0, 0, 0, 0, 0, 0, 0, 0, 0, 0, 0, 0, 0, 0, 0, 0, 0, 0, 0, 0, 0, 0], [0, 0, 0, 0, 0, 0, 0, 0, 0, 0, 0, 0, 0, 0, 0, 0, 0, 0, 0, 0, 0, 0, 0, 0, 0, 0, 0, 0, 0, 0, 0, 0, 0, 0, 0, 0, 0, 0, 0, 0], [0, 0, 0, 0, 0, 0, 0, 0, 0, 0, 0, 0, 0, 0, 0, 0, 0, 0, 0, 0, 0, 0, 0, 0, 0, 0, 0, 0, 0, 0, 0, 0, 0, 0, 0, 0, 0, 0, 0, 0], [0, 0, 0, 0, 0, 0, 0, 0, 0, 0, 0, 0, 0, 0, 0, 0, 0, 0, 0, 0, 0, 0, 0, 0, 0, 0, 0, 0, 0, 0, 0, 0, 0, 0, 0, 0, 0, 0, 0, 0], [0, 0, 0, 0, 0, 0, 0, 0, 0, 0, 0, 0, 0, 0, 0, 0, 0, 0, 0, 0, 0, 0, 0, 0, 0, 0, 0, 0, 0, 0, 0, 0, 0, 0, 0, 0, 0, 0, 0, 0], [50, 35, 38, 33, 40, 50, 50, 43, 49, 36, 40, 39, 31, 46, 33, 39, 35, 44, 30, 39, 50, 43, 36, 47, 48, 50, 46, 35, 31, 48, 43, 40, 48, 42, 33, 47, 49, 48, 42, 47], [50, 36, 49, 33, 50, 50, 37, 43, 50, 35, 30, 31, 31, 41, 43, 35, 37, 41, 36, 41, 44, 33, 42, 40, 38, 38, 34, 31, 38, 49, 43, 30, 43, 30, 49, 45, 45, 33, 50, 47], [38, 37, 33, 47, 38, 49, 31, 38, 34, 34, 48, 32, 31, 47, 46, 49, 31, 41, 34, 31, 47, 47, 41, 43, 40, 40, 37, 45, 41, 35, 47, 47, 36, 35, 37, 30, 50, 35, 33, 46]], [[0, 0, 0, 0, 0, 0, 0, 0, 0, 0, 0, 0, 0, 0, 0, 0, 0, 0, 0, 0, 0, 0, 0, 0, 0, 0, 0, 0, 0, 0, 0, 0, 0, 0, 0, 0, 0, 0, 0, 0], [0, 0, 0, 0, 0, 0, 0, 0, 0, 0, 0, 0, 0, 0, 0, 0, 0, 0, 0, 0, 0, 0, 0, 0, 0, 0, 0, 0, 0, 0, 0, 0, 0, 0, 0, 0, 0, 0, 0, 0], [0, 0, 0, 0, 0, 0, 0, 0, 0, 0, 0, 0, 0, 0, 0, 0, 0, 0, 0, 0, 0, 0, 0, 0, 0, 0, 0, 0, 0, 0, 0, 0, 0, 0, 0, 0, 0, 0, 0, 0], [0, 0, 0, 0, 0, 0, 0, 0, 0, 0, 0, 0, 0, 0, 0, 0, 0, 0, 0, 0, 0, 0, 0, 0, 0, 0, 0, 0, 0, 0, 0, 0, 0, 0, 0, 0, 0, 0, 0, 0], [0, 0, 0, 0, 0, 0, 0, 0, 0, 0, 0, 0, 0, 0, 0, 0, 0, 0, 0, 0, 0, 0, 0, 0, 0, 0, 0, 0, 0, 0, 0, 0, 0, 0, 0, 0, 0, 0, 0, 0], [0, 0, 0, 0, 0, 0, 0, 0, 0, 0, 0, 0, 0, 0, 0, 0, 0, 0, 0, 0, 0, 0, 0, 0, 0, 0, 0, 0, 0, 0, 0, 0, 0, 0, 0, 0, 0, 0, 0, 0], [31, 31, 41, 45, 35, 41, 45, 49, 37, 40, 50, 46, 40, 40, 50, 50, 33, 39, 38, 44, 37, 33, 31, 45, 45, 39, 42, 36, 33, 47, 40, 48, 42, 38, 50, 30, 45, 40, 48, 39], [42, 49, 46, 44, 46, 36, 37, 33, 41, 38, 32, 41, 47, 39, 47, 43, 42, 49, 36, 44, 39, 36, 47, 37, 42, 47, 32, 32, 35, 31, 40, 30, 32, 48, 50, 35, 43, 30, 30, 50]], [[0, 0, 0, 0, 0, 0, 0, 0, 0, 0, 0, 0, 0, 0, 0, 0, 0, 0, 0, 0, 0, 0, 0, 0, 0, 0, 0, 0, 0, 0, 0, 0, 0, 0, 0, 0, 0, 0, 0, 0], [0, 0, 0, 0, 0, 0, 0, 0, 0, 0, 0, 0, 0, 0, 0, 0, 0, 0, 0, 0, 0, 0, 0, 0, 0, 0, 0, 0, 0, 0, 0, 0, 0, 0, 0, 0, 0, 0, 0, 0], [0, 0, 0, 0, 0, 0, 0, 0, 0, 0, 0, 0, 0, 0, 0, 0, 0, 0, 0, 0, 0, 0, 0, 0, 0, 0, 0, 0, 0, 0, 0, 0, 0, 0, 0, 0, 0, 0, 0, 0], [0, 0, 0, 0, 0, 0, 0, 0, 0, 0, 0, 0, 0, 0, 0, 0, 0, 0, 0, 0, 0, 0, 0, 0, 0, 0, 0, 0, 0, 0, 0, 0, 0, 0, 0, 0, 0, 0, 0, 0], [0, 0, 0, 0, 0, 0, 0, 0, 0, 0, 0, 0, 0, 0, 0, 0, 0, 0, 0, 0, 0, 0, 0, 0, 0, 0, 0, 0, 0, 0, 0, 0, 0, 0, 0, 0, 0, 0, 0, 0], [0, 0, 0, 0, 0, 0, 0, 0, 0, 0, 0, 0, 0, 0, 0, 0, 0, 0, 0, 0, 0, 0, 0, 0, 0, 0, 0, 0, 0, 0, 0, 0, 0, 0, 0, 0, 0, 0, 0, 0], [0, 0, 0, 0, 0, 0, 0, 0, 0, 0, 0, 0, 0, 0, 0, 0, 0, 0, 0, 0, 0, 0, 0, 0, 0, 0, 0, 0, 0, 0, 0, 0, 0, 0, 0, 0, 0, 0, 0, 0], [36, 49, 50, 44, 47, 42, 33, 32, 47, 37, 40, 46, 45, 35, 30, 43, 47, 39, 34, 36, 41, 49, 48, 43, 42, 34, 33, 30, 38, 33, 50, 45, 46, 37, 35, 42, 31, 41, 31, 32]], [[0, 0, 0, 0, 0, 0, 0, 0, 0, 0, 0, 0, 0, 0, 0, 0, 0, 0, 0, 0, 0, 0, 0, 0, 0, 0, 0, 0, 0, 0, 0, 0, 0, 0, 0, 0, 0, 0, 0, 0], [0, 0, 0, 0, 0, 0, 0, 0, 0, 0, 0, 0, 0, 0, 0, 0, 0, 0, 0, 0, 0, 0, 0, 0, 0, 0, 0, 0, 0, 0, 0, 0, 0, 0, 0, 0, 0, 0, 0, 0], [0, 0, 0, 0, 0, 0, 0, 0, 0, 0, 0, 0, 0, 0, 0, 0, 0, 0, 0, 0, 0, 0, 0, 0, 0, 0, 0, 0, 0, 0, 0, 0, 0, 0, 0, 0, 0, 0, 0, 0], [0, 0, 0, 0, 0, 0, 0, 0, 0, 0, 0, 0, 0, 0, 0, 0, 0, 0, 0, 0, 0, 0, 0, 0, 0, 0, 0, 0, 0, 0, 0, 0, 0, 0, 0, 0, 0, 0, 0, 0], [0, 0, 0, 0, 0, 0, 0, 0, 0, 0, 0, 0, 0, 0, 0, 0, 0, 0, 0, 0, 0, 0, 0, 0, 0, 0, 0, 0, 0, 0, 0, 0, 0, 0, 0, 0, 0, 0, 0, 0], [0, 0, 0, 0, 0, 0, 0, 0, 0, 0, 0, 0, 0, 0, 0, 0, 0, 0, 0, 0, 0, 0, 0, 0, 0, 0, 0, 0, 0, 0, 0, 0, 0, 0, 0, 0, 0, 0, 0, 0], [0, 0, 0, 0, 0, 0, 0, 0, 0, 0, 0, 0, 0, 0, 0, 0, 0, 0, 0, 0, 0, 0, 0, 0, 0, 0, 0, 0, 0, 0, 0, 0, 0, 0, 0, 0, 0, 0, 0, 0], [0, 0, 0, 0, 0, 0, 0, 0, 0, 0, 0, 0, 0, 0, 0, 0, 0, 0, 0, 0, 0, 0, 0, 0, 0, 0, 0, 0, 0, 0, 0, 0, 0, 0, 0, 0, 0, 0, 0, 0]]];

q = [[[11], [23], [22], [17], [8], [10], [20], [7], [5], [19], [17], [10], [24], [10], [14], [23], [14], [10], [5], [7], [24], [5], [19], [7], [11], [8], [14], [11], [8], [10], [25], [7], [19], [9], [15], [9], [20], [24], [25], [12]], [[9], [20], [25], [23], [25], [21], [24], [9], [13], [22], [20], [21], [18], [12], [19], [22], [13], [5], [18], [24], [11], [18], [8], [21], [14], [12], [17], [11], [22], [12], [24], [17], [25], [8], [23], [25], [10], [13], [23], [5]], [[24], [18], [16], [5], [17], [6], [15], [21], [22], [21], [22], [14], [6], [17], [13], [20], [23], [19], [24], [23], [22], [22], [9], [17], [14], [10], [6], [8], [12], [19], [13], [13], [6], [15], [5], [15], [11], [14], [21], [12]], [[13], [11], [17], [22], [10], [11], [25], [23], [10], [20], [21], [11], [16], [15], [9], [24], [5], [22], [8], [18], [25], [23], [5], [15], [13], [24], [21], [15], [20], [12], [24], [22], [9], [17], [20], [20], [13], [7], [21], [14]], [[11], [7], [22], [8], [20], [24], [21], [9], [14], [21], [12], [12], [16], [13], [14], [5], [16], [8], [16], [12], [9], [17], [13], [14], [23], [23], [11], [10], [8], [9], [20], [19], [6], [19], [20], [14], [25], [10], [18], [10]], [[20], [19], [20], [6], [22], [11], [11], [10], [16], [15], [24], [20], [18], [20], [25], [5], [14], [13], [9], [21], [21], [20], [22], [14], [22], [6], [17], [18], [9], [17], [17], [19], [6], [14], [13], [5], [5], [21], [7], [5]], [[14], [5], [24], [25], [18], [5], [20], [24], [16], [11], [7], [9], [18], [16], [21], [12], [9], [17], [6], [8], [10], [18], [8], [17], [19], [7], [25], [6], [24], [19], [10], [6], [13], [12], [15], [14], [8], [11], [21], [13]], [[7], [14], [9], [12], [12], [8], [24], [15], [21], [23], [9], [5], [13], [7], [14], [21], [18], [12], [16], [10], [10], [22], [18], [24], [11], [19], [8], [5], [9], [20], [25], [18], [18], [21], [9], [18], [19], [12], [11], [22]]];
Q = [[55], [68], [61], [65], [57], [59], [56], [58]];
